38 18
13 684
10 604
8 436
2 384
17 318
6 258
7 273
6 352
4 867
15 955
12 49
6 70
16 943
12 839
8 97
4 999
1 638
10 112
15 282
2 628
17 257
12 809
4 704
3 186
1 480
4 677
16 854
6 689
7 883
9 73
14 840
1 663
14 423
14 801
4 178
16 141
7 501
8 686
